read_restart Fe3O4sss.restart 

pair_style    reax/c data_init/lmp_control
pair_coeff    * * data_init/ffield.reax.Fe_O_C_H Fe O

fix 1 all nve
fix 2 all qeq/reax 1 0.0 10.0 1.0e-6 reax/c

dump 1 all xyz 50 dump500sss.xyz

thermo 10

timestep 0.25
run 20000
